NAME : local_4
TYPE : ATSP
DIMENSION : 9
EDGE_WEIGHT_TYPE : EXPLICIT
EDGE_WEIGHT_FORMAT : FULL_MATRIX
EDGE_WEIGHT_SECTION
0 440 682 857 377 602 924 569 10000000 
0 0 437 10000000 549 915 10000000 898 10000000 
0 437 0 10000000 498 10000000 10000000 10000000 10000000 
0 10000000 10000000 0 10000000 596 894 488 10000000 
0 549 498 10000000 0 681 862 720 843 
0 915 10000000 596 681 0 459 128 860 
0 10000000 10000000 894 862 459 0 567 650 
0 898 10000000 488 720 128 567 0 985 
0 10000000 10000000 10000000 843 860 650 985 0 
EOF